c This is QMaxSAT 2017 based on 14.07
c This is Glucose 3.0
c This is MiniSat 2.2.0
c WARNING: for repeatability, setting FPU to use double precision
c card = mrwto, comp = 0, pmodel = 0, narr = 3, mct = 16, verb = 0
cr firstCPXsol 0 0 0
c top = 214379
c |  Number of variables:    3918                                             |
c |  Number of clauses:      325641                                           |
c |  Weight of hard clauses: 214379                                           |
c |  Number of soft clauses: 720                                              |
c |  Number of unit soft clauses: 720                                         |
c |  Maximum Cardinality (by unit): 643134       (643134      )               |
c last restart ## conflicts  :  3 520 
o 6990 | cpuTime 0.038755 s
c Sum of weights = 214378
c A number of soft clauses remained = 240
c MRWTO encoding for Pseudo-Boolean Constraints
c sizeMax=6990
c No.0 Divisor=10	generated by pow1
c No.1 Divisor=9	generated by pow1
c No.2 Divisor=10	generated by pow1
c No.3 Divisor=10	generated by pow1
c p0= 10	p1= 9	p2= 10	p3= 10	
c number of digits = 5
c linkingVar[0].size = 10, linkingVar[1].size = 9, linkingVar[2].size = 10, linkingVar[3].size = 8, linkingVar[4].size = 1, 
c Pseudo-Boolean Constraints: 6417 variables and 57431 clauses
c Sum of weights = 214378
c A number of soft clauses remained = 240
c MRWTO encoding for Pseudo-Boolean Constraints
c sizeMax=6990
c No.0 Divisor=10	generated by pow1
c No.1 Divisor=9	generated by pow1
c No.2 Divisor=10	generated by pow1
c No.3 Divisor=10	generated by pow1
c p0= 10	p1= 9	p2= 10	p3= 10	
c number of digits = 5
c linkingVar[0].size = 10, linkingVar[1].size = 9, linkingVar[2].size = 10, linkingVar[3].size = 8, linkingVar[4].size = 1, 
c Pseudo-Boolean Constraints: 6417 variables and 57431 clauses
c Sum of weights = 214378
c A number of soft clauses remained = 240
c MRWTO encoding for Pseudo-Boolean Constraints
c sizeMax=6990
c No.0 Divisor=10	generated by pow1
c No.1 Divisor=9	generated by pow1
c No.2 Divisor=10	generated by pow1
c No.3 Divisor=10	generated by pow1
c p0= 10	p1= 9	p2= 10	p3= 10	
c number of digits = 5
c linkingVar[0].size = 10, linkingVar[1].size = 9, linkingVar[2].size = 10, linkingVar[3].size = 8, linkingVar[4].size = 1, 
c Pseudo-Boolean Constraints: 6417 variables and 57431 clauses
c last restart ## conflicts  :  34 1984 
o 5907 | cpuTime 0.134862 s
c last restart ## conflicts  :  50 2805 
o 5860 | cpuTime 0.145699 s
c last restart ## conflicts  :  143 2585 
o 5297 | cpuTime 0.204777 s
c last restart ## conflicts  :  66 1266 
o 5186 | cpuTime 0.454329 s
c last restart ## conflicts  :  143 1400 
o 5144 | cpuTime 0.662486 s
s OPTIMUM FOUND
cr positiVarArr: [ | 11@1(1->11) | 161@1(11->1) | 258@2(1->2) | 275@2(2->3) | 298@2(3->10) | 305@2(4->1) | 324@2(5->4) | 414@2(10->14) | 479@2(14->15) | 485@2(15->5) | 520@3(1->8) | 601@3(6->9) | 614@3(7->6) | 631@3(8->7) | 653@3(9->13) | 704@3(12->16) | 716@3(13->12) | 753@3(16->1) | ]
cr the 1-th chain: [ 1->11->1 ] (#non-depot=1) {#cumul.=2}
cr the 2-th chain: [ 1->2->3->10->14->15->5->4->1 ] (#non-depot=7) {#cumul.=9}
cr the 3-th chain: [ 1->8->7->6->9->13->12->16->1 ] (#non-depot=7) {#cumul.=16}
c Latest Answer = 0 by 6 loops
c restarts              : 9304
c conflicts             : 2513545        (6354 /sec)
c decisions             : 6758720        (0.00 % random) (17085 /sec)
c propagations          : 1361170266     (3440828 /sec)
c conflict literals     : 413448163      (50.33 % deleted)
c Memory used           : 277.00 MB
c CPU time              : 395.594 s
